NAME : portcgen-20-20
COMMENT : portcgen N=20, seed=20
TYPE : TSP
DIMENSION : 20
EDGE_WEIGHT_TYPE : EUC_2D
NODE_COORD_SECTION
1 89 58
2 63 87
3 60 46
4 99 79
5 79 66
6 69 93
7 93 83
8 71 48
9 95 89
10 93 53
11 74 43
12 76 67
13 77 82
14 73 70
15 68 90
16 80 69
17 85 91
18 67 71
19 70 63
20 86 56
